(set-option :produce-models true)
(set-logic QF_UF)
(declare-fun p7() Bool)
(declare-fun p5() Bool)
(declare-fun p13() Bool)
(declare-fun p8() Bool)
(declare-fun p16() Bool)
(declare-fun p2() Bool)
(declare-fun p0() Bool)
(declare-fun p10() Bool)
(declare-fun p9() Bool)
(declare-fun p1() Bool)
(declare-fun p11() Bool)
(declare-fun p17() Bool)
(declare-fun p18() Bool)
(declare-fun p14() Bool)
(declare-fun p3() Bool)
(declare-fun p19() Bool)
(declare-fun p12() Bool)
(declare-fun p6() Bool)
(declare-fun p4() Bool)
(declare-fun p15() Bool)
(assert
(and (or p7 (not p5) (not p13)) (or p8 p16 (not p2)) (or (not p5) p0 (not p0)) (or p7 (not p10) (not p9)) (or p1 p0 (not p11)) (or p0 (not p17) (not p18)) (or p0 p14 (not p7)) (or (not p3) p5 p19) (or (not p11) (not p1) (not p16)) (or p17 p10 p11) (or (not p12) p6 p1) (or (not p9) p19 (not p9)) (or p7 (not p0) p17) (or p16 p4 p7) (or (not p19) (not p10) p11) (or (not p17) (not p16) p15) (or (not p13) p1 (not p15)) (or (not p18) p10 (not p9)) (or (not p12) p5 p5) (or p19 p1 (not p6)) (or p8 (not p4) (not p5)) (or (not p0) p5 p5) (or (not p10) p6 (not p18)) (or p10 p6 (not p7)) (or (not p9) (not p5) (not p13)) (or (not p14) (not p19) (not p17)) (or p17 p0 p16) (or p11 p16 p9) (or p4 p5 (not p4)) (or (not p18) p6 (not p11)) (or (not p11) (not p9) (not p3)) (or p17 (not p9) (not p8)) (or p4 p18 (not p17)) (or (not p11) (not p1) (not p5)) (or p11 p9 (not p8)) (or (not p8) p19 p3) (or p15 (not p6) p0) (or (not p5) p13 p2) (or p0 p0 (not p13)) (or p18 (not p1) p11) (or p16 (not p3) (not p8)) (or (not p7) (not p10) p13) (or (not p8) (not p6) (not p16)) (or (not p10) p0 (not p15)) (or (not p18) p4 p18) (or p15 (not p2) (not p3)) (or (not p1) p11 p10) (or p12 (not p11) (not p16)) (or p6 (not p3) (not p1)) (or (not p18) p3 (not p15)) (or p3 p19 p11) (or p7 (not p10) (not p1)) (or p12 p0 (not p16)) (or (not p1) (not p13) (not p18)) (or p15 p14 (not p7)) (or p11 p4 p8) (or (not p14) (not p17) (not p18)) (or p2 (not p3) (not p6)) (or (not p4) (not p5) (not p11)) (or p10 (not p12) (not p15)) (or p10 p5 p13) (or p8 (not p15) p7) (or (not p15) (not p11) p9) (or (not p14) (not p5) (not p6)) (or (not p7) (not p7) (not p1)) (or p1 (not p13) p5) (or p5 p3 p2) (or (not p1) p15 p6) (or (not p16) (not p11) (not p0)) (or (not p17) (not p5) p10) (or (not p6) p7 p8) (or p12 (not p3) (not p12)) (or (not p5) p17 p16) (or p16 p13 p12) (or (not p8) p4 p17) (or p11 (not p19) p17) (or p19 (not p13) p13) (or p12 (not p5) p6) (or p10 p17 (not p19)) (or p2 (not p7) (not p13)) (or (not p11) p16 (not p18)) (or (not p9) p10 p3) (or (not p7) (not p15) (not p12)) (or p5 (not p7) (not p3)) (or (not p2) p9 (not p19)) (or (not p19) (not p11) p0) (or p4 (not p11) (not p2)))
)
(check-sat)
(get-model)
